(set-info :smt-lib-version 2.0)
(set-logic ALL)
; variable declaration
(declare-const r_final_1 (_ BitVec 64))
(declare-const a_0 (_ BitVec 64))
(declare-const c_1 (_ BitVec 1))
(declare-const b_0 (_ BitVec 64))
(declare-const r_m_1 (_ BitVec 64))
(declare-const r_sum_2 (_ BitVec 64))
(declare-const r_sum_1 (_ BitVec 64))
(declare-const r_diff_2 (_ BitVec 64))
(declare-const r_diff_1 (_ BitVec 64))
; range precondition and program 
(assert (and (bvult a_0 #x0000000000989680) (bvult b_0 #x0000000000989680)))
(assert (= r_m_1 #x0000000000989680))
(assert (= r_sum_1 a_0))
(assert (= r_sum_2 (bvadd r_sum_1 b_0)))
(assert (= r_diff_1 r_sum_2))
(assert (and (= c_1 ((_ extract 64 64) (bvsub ((_ zero_extend 1) r_diff_1) ((_ zero_extend 1) r_m_1)))) (= r_diff_2 ((_ extract 63 0) (bvsub ((_ zero_extend 1) r_diff_1) ((_ zero_extend 1) r_m_1))))))
(assert (= r_final_1 (ite (= c_1 #b1) r_sum_2 r_diff_2)))
; algebraic precondition and program
(assert true)
(assert (eqP (PConst (bv2nat r_m_1)) (PConst 10000000)))
(assert (eqP (PConst (bv2nat r_sum_1)) (PConst (bv2nat a_0))))
(assert (eqP (PConst (bv2nat r_sum_1)) (PConst (bv2nat b_0))))
(assert (eqP (PConst (bv2nat r_sum_2)) (PAdd (PConst (bv2nat r_sum_1)) (PConst (bv2nat b_0)))))
(assert (eqP (PConst (bv2nat r_diff_1)) (PConst (bv2nat r_sum_2))))
(assert (eqP (PAdd (PSub (PConst (bv2nat r_diff_1)) (PConst (bv2nat r_m_1))) (PMul (PConst (bv2nat c_1)) (PConst 18446744073709551616))) (PConst (bv2nat r_diff_2))))
(assert (eqP (PMul (PConst (bv2nat c_1)) (PSub (PConst (bv2nat c_1)) (PConst 1))) (PConst 0)))
(assert (eqP (PConst (bv2nat r_final_1)) (PAdd (PMul (PConst (bv2nat c_1)) (PConst (bv2nat r_sum_2))) (PMul (PSub (PConst 1) (PConst (bv2nat c_1))) (PConst (bv2nat r_diff_2))))))
; postcondition
(assert (not (and (bvult r_final_1 #x0000000000989680) (eqmodP1 (PConst (bv2nat r_final_1)) (PAdd (PConst (bv2nat a_0)) (PConst (bv2nat b_0))) (PConst 10000000)))))
; check
(check-sat)
(exit)
